15 3 
2709	2709	2709	
916	277	278	
160	34	35	
947	954	983	
219	561	567	
178	178	179	
544	691	700	
322	91	97	
91	614	660	
779	485	501	
525	131	139	
310	593	632	
176	263	285	
14	347	374	
725	193	210	
109	7	7	
